#SOLVERNAME# PAJ_Gurobi_MOSEK_msd
#SOLVER# Pajarito.PajaritoSolver(3, 3600.0, 1.0e-5, true, Gurobi.GurobiSolver(nothing, Any[(:OutputFlag, 1), (:Threads, 8), (:IntFeasTol, 1.0e-9), (:FeasibilityTol, 1.0e-8), (:MIPGap, 1.0e-5)]), Pajarito.UnsetSolver(), 0, false, true, Mosek.MosekSolver(Any[(:LOG, 0), (:NUM_THREADS, 8), (:MSK_DPAR_INTPNT_CO_TOL_REL_GAP, 1.0e-10), (:MSK_DPAR_INTPNT_CO_TOL_PFEAS, 1.0e-10), (:MSK_DPAR_INTPNT_CO_TOL_DFEAS, 1.0e-10), (:MSK_DPAR_INTPNT_CO_TOL_NEAR_REL, 1000.0)]), true, true, false, false, true, false, false, true, false, true, true, true, true, false, true, 10.0, true, false, false, true, 1.0e-12, 1.0e-8, false, "")
#INSTANCE# port_12_9_3_d_1.cbf.gz
#TIMELIMIT# 3600.0

Problem dimensions:
       variables |      91
     constraints |     170
   nonzeros in A |     458

Cones summary:
Cone             | Count   | Min dim.  | Max dim. 
    Second order |       1 |        13 |        13
   Primal expon. |      18 |         3 |         3
   Pos. semidef. |       1 |       7^2 |       7^2

Variable types:
      continuous |      67
         integer |      24

Transforming data...               0.00s

Creating conic subproblem...       0.16s

Building MIP model...              0.00s

Solving conic relaxation...        0.03s
 - Relaxation status    =        Optimal
 - Relaxation bound     =      -0.043284
Academic license - for non-commercial use only
Optimize a model with 301 rows, 103 columns and 799 nonzeros
Variable types: 79 continuous, 24 integer (0 binary)
Coefficient statistics:
  Matrix range     [3e-12, 1e+02]
  Objective range  [2e-02, 2e-01]
  Bounds range     [0e+00, 0e+00]
  RHS range        [8e-12, 2e+01]
Warning: Model contains large matrix coefficient range
         Consider reformulating model or setting NumericFocus parameter
         to avoid numerical issues.
Found heuristic solution: objective 0.0000000
Presolve removed 190 rows and 3 columns
Presolve time: 0.00s
Presolved: 111 rows, 100 columns, 519 nonzeros
Variable types: 76 continuous, 24 integer (24 binary)

Root relaxation: objective -4.328302e-02, 93 iterations, 0.00 seconds

    Nodes    |    Current Node    |     Objective Bounds      |     Work
 Expl Unexpl |  Obj  Depth IntInf | Incumbent    BestBd   Gap | It/Node Time

     0     0   -0.04328    0    7    0.00000   -0.04328      -     -    0s
     0     0   -0.04328    0   16    0.00000   -0.04328      -     -    0s
     0     0   -0.04328    0   16    0.00000   -0.04328      -     -    0s
     0     2   -0.04328    0   17    0.00000   -0.04328      -     -    0s
*  524   388              23      -0.0307720   -0.04328  40.7%  17.3    1s
* 1270   725              20      -0.0325640   -0.04066  24.9%  17.1    1s
* 1635   811              21      -0.0333196   -0.04032  21.0%  17.0    1s
* 1751   809              22      -0.0337010   -0.04021  19.3%  17.1    1s
* 4932  1261              18      -0.0337817   -0.03793  12.3%  16.1    2s

Cutting planes:
  Gomory: 1
  Implied bound: 3
  Flow cover: 1
  Lazy constraints: 740

Explored 12515 nodes (173140 simplex iterations) in 3.03 seconds
Thread count was 8 (of 16 available processors)

Solution count 6: -0.0337817 -0.033701 -0.0333196 ... 0

Solve interrupted
Best objective -3.378172026116e-02, best bound -3.401312136956e-02, gap 0.6850%

Starting MIP-solver-driven algorithm
Mosek problem is Mosek.MSK_PRO_STA_UNKNOWN, solution is Mosek.MSK_SOL_STA_UNKNOWN, response is Mosek.MSK_RES_OK

Mosek problem is Mosek.MSK_PRO_STA_UNKNOWN, solution is Mosek.MSK_SOL_STA_UNKNOWN, response is Mosek.MSK_RES_OK

Mosek problem is Mosek.MSK_PRO_STA_UNKNOWN, solution is Mosek.MSK_SOL_STA_UNKNOWN, response is Mosek.MSK_RES_OK

WARNING: Conic solver failure: returned status Unknown
WARNING: Conic solver failure: returned status Unknown
WARNING: Conic solver failure: returned status Unknown

MIP-solver-driven algorithm summary:
 - Status               =        Optimal
 - Best feasible        =  -3.401402e-02
 - Best bound           =  -3.401312e-02
 - Relative opt. gap    =     -2.654e-05
 - Total time (s)       =       3.24e+00

Timers (s):
 - Setup                =   1.57e-01
 -- Transform data      =   1.23e-04
 -- Create conic data   =   1.57e-01
 -- Create MIP data     =   4.59e-04
 - Algorithm            =   3.09e+00
 -- Solve relaxation    =   3.19e-02
 -- Get relaxation cuts =   1.84e-02
 -- MIP solver driving  =   3.04e+00
 -- Solve subproblems   =   6.09e-01
 -- Get subproblem cuts =   1.51e-02
 -- Get separation cuts =   3.24e-03

Counters:
 - Lazy callbacks       =    61
 -- Integer repeats     =    20
 -- Conic subproblems   =    42
 --- Infeasible         =     0
 --- Optimal            =    39
 --- Suboptimal         =     0
 --- UserLimit          =     0
 --- ConicFailure       =     0
 --- Other status       =     3
 -- Feasible solutions  =    40
 --- From subproblems   =    39
 --- In lazy callback   =     1
 - Heuristic callbacks  =  6909
 -- Solutions passed    =    12

Solution returned by conic solver

Rounds of full separation/subproblem cuts, and count of cuts added:
Cone             | Subp.  | Sep.   | Total  | Relax. | Viol. 
    Second order |     54 |      8 |    276 |     12 |    276
   Primal expon. |   1044 |     54 |    443 |     18 |    443
   Pos. semidef. |     58 |     10 |     23 |      7 |     23

0 numerically unstable disaggregated SOC cuts

Distance to feasibility (negative indicates strict feasibility):
Cone             | Variable  | Constraint
          Linear |  0.00e+00 |  2.55e-07
    Second order |        NA | -2.33e-08
   Primal expon. |        NA |  9.05e-09
   Pos. semidef. |        NA | -1.59e-07

Distance to integrality of integer/binary variables:
         integer |  0.00e+00

#STATUS# Optimal
#OBJVAL# -0.034014024474719615
#OBJBOUND# -0.03401312136956294
#NODECOUNT# 12515
#TIMESOLVER# 3.243778944015503
#TIMEALL# 3.2444539070129395
#SOLUTION# [0.0,0.0,0.0,0.05863590950194763,0.0,0.0,0.1231998638345515,0.0,0.0,0.0,0.0,0.0,0.0,0.036600869357040995,0.0,0.0,0.0,0.07405210443095404,0.05433989442569014,0.0,0.0,0.0,0.0,0.08755814697975127,0.0,-0.0,0.0,0.0,1.0,-0.0,1.0,-0.0,-0.0,-0.0,1.0,1.0,0.0,-0.0,-0.0,0.0,0.0,-0.0,-0.0,1.0,-0.0,0.0,-0.0,1.0,3.239273652615588,0.003172645288156777,0.004643523646037252,0.0016505135364772601,0.02673001111904496,0.002406122561015228,0.001218672591825227,0.027766852528277042,-9.190512913911658e-5,0.002226499518851182,0.00525396323702637,0.0020040401597102076,0.006024426846263404,-0.00018833036942256243,0.02066041716362843,0.0017132623762623478,0.0009997352005217675,0.0007417490343581967,0.025648658954183112,0.022312076527336577,0.0006898770718810621,0.003545840023640112,0.0005186146722917075,0.0025052331148733057,0.027842361577089077,-0.00018831625409095358,0.020872379519760047,0.0017147253210242131,0.0010002313021306483,0.0007420195571502146,0.025974802098257282,0.02255915878143726,0.0006901108571806076,0.0035521158865142407,0.0001883542884058142,-0.02044550252976071,-0.0017117875805969277,-0.0009992286719769123,-0.0007414675345718865,-0.025316883057430718,-0.02206128790057078,-0.0006896320822477479,-0.003539537490021192]
